(set-logic QF_BV)
(declare-fun _substvar_1767_ () Bool)
(declare-fun _substvar_1371_ () (_ BitVec 1))
(declare-fun _substvar_1400_ () (_ BitVec 1))
(declare-fun _substvar_1268_ () (_ BitVec 8))
(declare-fun _substvar_1262_ () (_ BitVec 8))
(declare-fun _substvar_1387_ () (_ BitVec 1))
(declare-fun _substvar_1264_ () (_ BitVec 8))
(declare-fun _substvar_1257_ () (_ BitVec 8))
(declare-fun _substvar_2901_ () (_ BitVec 1))
(assert (let ((?v_0 (concat (_ bv1 1) (_ bv0 7))) (?v_9 (bvadd (bvnot (_ bv1 8)) (_ bv1 8)))) (let ( (?v_2 (= (_ bv1 1) (bvnot (ite (= (bvand (bvand _substvar_1257_ _substvar_1264_) ?v_0) (_ bv0 8)) (_ bv1 1) (_ bv0 1)))))) (let ((?v_7 _substvar_1257_) (?v_13 (ite ?v_2 (_ bv0 8) _substvar_1264_)) (?v_17 ((_ zero_extend 5) (_ bv1 3)))) (let ((?v_8 (bvlshr ?v_0 ?v_17))) (let ((?v_14 (bvadd (bvnot ?v_8) (_ bv1 8))) (?v_15 (bvnot (_ bv0 8)))) (let ((?v_10 (bvnot (bvand (bvnot (bvadd ?v_7 ?v_14)) ?v_15))) (?v_16 (bvnot (bvand (bvnot (bvadd ?v_13 ?v_14)) ?v_15)))) (let ((?v_12 (= (_ bv1 1) (bvnot (ite (bvult ?v_10 _substvar_1262_) (_ bv1 1) (_ bv0 1))))) (?v_11 (= (_ bv1 1) (bvnot (ite (= (bvand (bvand ?v_7 ?v_13) ?v_8) (_ bv0 8)) (_ bv1 1) (_ bv0 1)))))) (let ((?v_18 (ite ?v_11 (ite ?v_12 ?v_10 ?v_7) ?v_7)) (?v_23 (ite ?v_11 (ite ?v_12 ?v_13 ?v_16) ?v_13)) (?v_19 (bvlshr ?v_8 ?v_17))) (let ((?v_24 (bvadd (bvnot ?v_19) (_ bv1 8))) (?v_25 (bvnot (bvadd ?v_19 ?v_9)))) (let ((?v_20 (bvnot (bvand (bvnot (bvadd ?v_18 ?v_24)) ?v_25)))) (let ((?v_22 (= (_ bv1 1) _substvar_2901_)) (?v_21 (= (_ bv1 1) (bvnot (ite (= (bvand (bvand ?v_18 ?v_23) ?v_19) (_ bv0 8)) (_ bv1 1) (_ bv0 1)))))) (let ((?v_27 (ite ?v_21 (ite ?v_22 ?v_20 ?v_18) ?v_18)) (?v_32 (ite ?v_21 (ite ?v_22 ?v_23 (_ bv0 8)) ?v_23)) (?v_28 (bvlshr ?v_19 ?v_17))) (let ( (?v_30 (= (_ bv1 1) (bvnot (ite (= (bvand (bvand ?v_27 ?v_32) ?v_28) (_ bv0 8)) (_ bv1 1) (_ bv0 1)))))) (let ((?v_36 (ite ?v_30 (_ bv0 8) ?v_27)) (?v_41 ?v_32) (?v_37 (bvlshr ?v_28 ?v_17))) (let ((?v_42 (bvadd (bvnot ?v_37) (_ bv1 8))) (?v_43 (bvnot (bvadd ?v_37 ?v_9)))) (let ((?v_38 (bvnot (bvand (bvnot (bvadd ?v_36 ?v_42)) ?v_43)))) (let ((?v_40 (= (_ bv1 1) (bvnot (ite (bvult ?v_38 _substvar_1262_) (_ bv1 1) (_ bv0 1))))) (?v_39 (= (_ bv1 1) (bvnot (ite (= (bvand (bvand ?v_36 ?v_41) ?v_37) (_ bv0 8)) (_ bv1 1) (_ bv0 1)))))) (let ((?v_45 (ite ?v_39 (ite ?v_40 ?v_38 ?v_36) ?v_36)) (?v_50 (ite ?v_39 (ite ?v_40 ?v_41 (_ bv0 8)) ?v_41)) (?v_46 (bvlshr ?v_37 ?v_17))) (let ( (?v_48 (= (_ bv1 1) (bvnot (ite (= (bvand (bvand ?v_45 ?v_50) ?v_46) (_ bv0 8)) (_ bv1 1) (_ bv0 1)))))) (let ((?v_54 ?v_45) (?v_59 (ite ?v_48 (_ bv0 8) ?v_50)) (?v_55 (bvlshr ?v_46 ?v_17))) (let ( (?v_57 (= (_ bv1 1) (bvnot (ite (= (bvand (bvand ?v_54 ?v_59) ?v_55) (_ bv0 8)) (_ bv1 1) (_ bv0 1)))))) (let ((?v_63 (ite ?v_57 (_ bv0 8) ?v_54)) (?v_68 (ite ?v_57 (_ bv0 8) ?v_59)) (?v_64 (bvlshr ?v_55 ?v_17))) (let ( (?v_66 (= (_ bv1 1) (bvnot (ite (= (bvand (bvand ?v_63 ?v_68) ?v_64) (_ bv0 8)) (_ bv1 1) (_ bv0 1)))))) (let ((?v_72 (ite ?v_66 (_ bv0 8) ?v_63)) (?v_73 ?v_68)) (not (= (bvand (bvand (bvand (bvand _substvar_1371_ (bvnot (ite (bvult _substvar_1257_ _substvar_1268_) (_ bv1 1) (_ bv0 1)))) _substvar_1387_) _substvar_1400_) (ite (bvult (bvand (bvnot (_ bv0 8)) (bvnot (bvand ?v_72 ?v_73))) (bvand (bvnot (bvand (bvnot _substvar_1268_) (bvnot (_ bv0 8)))) (bvnot (_ bv0 8)))) (_ bv1 1) (_ bv0 1))) (_ bv0 1))))))))))))))))))))))))))))
(check-sat)
(exit)
